(declare-const IPAddr String)
(declare-const o1 String)
(declare-const o2 String)
(declare-const o3 String)
(declare-const o4 String)
(assert (str.in.re IPAddr (re.++ (re.++ (re.* (re.range "0" "2")) (re.++ (re.+ (re.range "0" "9")) (re.+ (re.range "0" "9")))) (re.++ (re.+ (re.range "0" "9")) (re.++ (re.++ (re.* (re.range "0" "2")) (re.++ (re.+ (re.range "0" "9")) (re.+ (re.range "0" "9")))) (re.++ (str.to.re "f") (re.++ (re.++ (re.* (re.range "0" "2")) (re.++ (re.+ (re.range "0" "9")) (re.+ (re.range "0" "9")))) (re.++ (str.to.re "f") (re.++ (re.* (re.range "0" "2")) (re.++ (re.+ (re.range "0" "9")) (str.to.re "f")))))))))))
(assert (= IPAddr (str.++ o1 (str.++ "f" (str.++ o2 (str.++ (str.++ "f" o4) (str.++ o3 "f")))))))
(assert (and (>= (str.len o1) 1) (>= (str.len o2) 1) (>= (str.len o3) 1) (>= (str.len o4) 1)))
(assert (or (= (str.len o1) 1) (= (str.len o2) 1) (= (str.len o3) 1) (= (str.len o4) 1)))
(assert (and (<= (str.len o1) 3) (<= (str.len o2) 3) (<= 3 (str.len o3)) (<= (str.len o4) 3)))
(check-sat)
